========================================================== 
File name: C:\DEGR\assets\definitions\MSRCPSP_Gen\100_5_64_5_D.def
Creation date: Wed May 03 10:36:50 CEST 2023
Website: http://imopse.ii.pwr.edu.pl/ 
Reference: 
Myszkowski P. B., Skowronski M. E., Olech L., Oslizlo K., 
Hybrid Ant Colony Optimization in solving Multi-Skill Resource-Constrained Project Scheduling Problem, 
Soft Computing, DOI: DOI 10.1007/s00500-014-1455-x 
========================================================== 
General characteristics: 
Tasks: 100
Resources: 5
Precedence relations: 63
Number of skill types: 5
========================================================== 
ResourceID 	 Salary 	 Skills 
1	 	 	74.2	 	 Q2: 2 	  Q4: 0 	 
2	 	 	63.8	 	 Q3: 1 	  Q0: 0 	  Q2: 1 	  Q4: 1 	 
3	 	 	71.1	 	 Q1: 0 	  Q4: 0 	 
4	 	 	57.9	 	 Q1: 2 	 
5	 	 	67.6	 	 Q2: 1 	  Q3: 0 	  Q0: 1 	  Q1: 0 	 
========================================================== 
TaskID 	 Duration 	 Skill 	 Predecessor IDs 
1	40	Q0:	1
2	28	Q2:	2
3	37	Q1:	2
4	9	Q2:	2	3
5	17	Q1:	0
6	35	Q4:	1	3
7	22	Q4:	0
8	11	Q4:	0	5
9	28	Q4:	0
10	40	Q3:	1
11	15	Q2:	2
12	40	Q0:	1
13	36	Q0:	0
14	35	Q0:	1
15	22	Q3:	0	1
16	33	Q3:	0
17	13	Q4:	1
18	10	Q1:	0
19	10	Q1:	0
20	37	Q2:	1
21	19	Q2:	1
22	29	Q0:	1
23	25	Q3:	0
24	26	Q1:	0	13
25	20	Q0:	0
26	16	Q0:	1	20
27	28	Q2:	2	18
28	10	Q0:	0
29	39	Q2:	1	7
30	9	Q1:	2	13
31	14	Q3:	1
32	27	Q0:	0
33	14	Q1:	0
34	19	Q1:	2
35	28	Q0:	0
36	13	Q3:	1
37	26	Q4:	0
38	33	Q4:	1	32	14
39	25	Q3:	0
40	38	Q0:	0	39
41	34	Q4:	0	5
42	17	Q0:	0	27
43	17	Q4:	0	6
44	13	Q1:	2
45	13	Q3:	1
46	25	Q4:	1	15
47	38	Q0:	0
48	17	Q4:	0
49	18	Q4:	0	39
50	29	Q2:	2	37
51	26	Q1:	0
52	25	Q4:	0
53	12	Q0:	0	32
54	24	Q1:	0	38
55	30	Q1:	0
56	38	Q4:	1	33	50	39
57	33	Q4:	1	49
58	12	Q4:	1
59	19	Q3:	1
60	30	Q1:	2
61	32	Q2:	1	4
62	31	Q3:	0
63	37	Q3:	0
64	19	Q3:	1	2	38	36
65	32	Q0:	1	55	35
66	25	Q3:	0	24	21
67	17	Q0:	1
68	19	Q1:	0	28	11	36	65
69	16	Q2:	2	45
70	34	Q0:	1	1
71	23	Q0:	1
72	30	Q2:	2	69
73	17	Q1:	0	34	68
74	40	Q0:	1
75	36	Q3:	0
76	10	Q1:	2
77	15	Q2:	1	22	26
78	32	Q4:	0
79	26	Q1:	0
80	38	Q0:	0	14	45
81	28	Q2:	2
82	12	Q3:	1	52	55
83	37	Q2:	1
84	40	Q0:	0	33
85	21	Q1:	2
86	17	Q1:	2
87	13	Q4:	1
88	40	Q1:	2	68
89	30	Q4:	1
90	27	Q4:	0	60
91	15	Q3:	0
92	37	Q0:	1
93	18	Q1:	2	67
94	23	Q3:	1	56	26	36	48
95	27	Q0:	1	37	82
96	18	Q2:	1	29
97	23	Q2:	2	70
98	33	Q3:	1	73	52
99	21	Q3:	0	4
100	35	Q3:	1	68
========================================================== 